(declare-fun mem (Int Int) Bool)
(assert
(let ((a!1 (forall ((q!u!0 Int)
                    (q!w!0 Int)
                    (q!u!5 Int)
                    (q!u!6 Int)
                    (q!u!7 Int)
                    (q!w!3 Int)
                    (v Int)
                    (l Int))
             (exists ((q!h!1 Int)
                      (q!z!3 Int)
                      (q!z!0 Int)
                      )
               (let ((a!1 (or (not (and (mem l q!u!7) (mem l q!w!3)))
                              (= q!u!7 q!w!3)))
                     (a!4 (or (not (and (mem l q!u!0) (mem l q!w!0)))
                              (= q!u!0 q!w!0))))
                 (or a!1
                     (not a!4)))))))
  (not a!1))
  )

(check-sat)
(get-model)
